Traveling Salesman Problem/TSP_generados/Aleatorio1621103661_17.tsp
NAME: Aleatorio1621103661_17.tsp
COMMENT: Randomly generated scenario
TYPE: TSP
DIMENSION: 17
EDGE_WEIGHT_TYPE: ATT
NODE_COORD_SECTION
1 20.4 30.92
2 43.38 17.07
3 28.89 1.21
4 2.62 45.39
5 19.0 31.25
6 27.57 49.14
7 36.3 27.69
8 49.44 32.91
9 3.89 1.14
10 34.97 7.35
11 16.24 13.83
12 2.31 29.77
13 9.9 9.46
14 43.04 23.13
15 14.71 17.12
16 39.4 40.25
17 22.47 39.51
