Traveling Salesman Problem/TSP_generados/Aleatorio1621103661_17.opt.tour
NAME: Aleatorio1621103661_17.opt.tour
COMMENT: Optimal solution for Aleatorio1621103661_17 (199.81477102037613)
TYPE: TOUR
DIMENSION: 17
TOUR_SECTION
1 5 4 12 15 11 13 9 3 10 2 14 7 8 16 6 17
-1
EOF
